DIMENSION :19
NODE_COORD_SECTION
1 -44.05602121107177 57.176596523813885
2 75.35729574768476 -5.186188554977392
3 6.111439694863748 -71.97903368553888
4 6.207373949398075 96.89052892133012
5 83.55001832069149 -8.613008354055921
6 55.22205331162024 -84.3317858233243
7 22.740291094792468 39.645531070321795
8 -17.46309299918363 18.603800662196818
9 59.857040968448814 -88.87357752413165
10 -30.827223911338322 -43.01098716407932
11 34.80823245109079 11.387712336317989
12 -12.897321321774811 -18.23184842192059
13 33.08503409530411 -68.84204076028546
14 2.8951060161437994 40.44353788400741
15 -73.70851280130881 45.25933945741701
16 95.38416726113934 55.48979381299702
17 -66.30141111866729 -58.1413945759371
18 -3.081445491018229 40.36215847208834
19 -28.105510623226436 -72.31819967402113
EOF
